c User generated cnf file
p cnf 13 49
4 -4 1 0 
12 9 -7 0 
9 7 -9 0 
9 -9 10 0 
10 -11 9 0 
6 5 -5 0 
9 2 -7 0 
8 2 -3 0 
11 5 -9 0 
10 5 -2 0 
7 10 -10 0 
4 3 -7 0 
1 -11 8 0 
1 -13 1 0 
8 -11 11 0 
10 3 -2 0 
1 13 -3 0 
12 -5 5 0 
3 -5 10 0 
12 7 -6 0 
10 -1 11 0 
5 3 -3 0 
2 12 -6 0 
4 -3 2 0 
11 -7 3 0 
11 -6 11 0 
13 2 -13 0 
11 12 -13 0 
8 7 -7 0 
10 -4 1 0 
13 -2 12 0 
2 -4 3 0 
10 -9 5 0 
6 -2 9 0 
3 4 -8 0 
5 -7 13 0 
4 9 -5 0 
2 8 -9 0 
1 -2 10 0 
3 -11 1 0 
13 4 -9 0 
2 8 -11 0 
9 -5 7 0 
8 12 -6 0 
12 7 -7 0 
13 -11 5 0 
5 13 -13 0 
11 -1 3 0 
2 -8 13 0 
